(declare-const __VERIFIER_assert__cond___7 Int)
(declare-const __VERIFIER_assert__cond___3 Int)
(declare-const |main__t':147:385:1008:1108| Int)
(declare-const |havoc:9:63:145:225:233:536:1104| Int)
(declare-const __VERIFIER_assert__cond___18 Int)
(declare-const |havoc:28:64:341:391:1014:1114| Int)
(declare-const havoc Int)
(declare-const |main____CPAchecker_TMP_0':148:169:176:229:532:1100| Int)
(declare-const |phi___VERIFIER_assert__cond___18:393:528:1096| Int)
(declare-const |phi___VERIFIER_assert__cond___0:400:521:1089| Int)
(declare-const __VERIFIER_assert__cond___15 Int)
(declare-const |main____CPAchecker_TMP_4':364:389:1012:1112| Int)
(declare-const __VERIFIER_assert__cond___8 Int)
(declare-const |main____CPAchecker_TMP_3':363:390:1013:1113| Int)
(declare-const __VERIFIER_assert__cond___11 Int)
(declare-const |phi___tmp_259_0:404:517:1085| Int)
(declare-const |__VERIFIER_assert__cond___8':368:384:1007:1107| Int)
(declare-const |__VERIFIER_assert__cond___3':365:388:1011:1111| Int)
(declare-const |K:165:166:173:226:529:1097| Int)
(declare-const |phi_main____CPAchecker_TMP_0:402:519:1087| Int)
(declare-const |phi___VERIFIER_assert__cond:401:520:1088| Int)
(declare-const |phi___tmp_383_0:405:516:1084| Int)
(declare-const |phi___VERIFIER_assert__cond___12:398:523:1091| Int)
(declare-const |phi___VERIFIER_assert__cond___17:394:527:1095| Int)
(declare-const __VERIFIER_assert__cond___4 Int)
(declare-const |phi___VERIFIER_assert__cond___15:396:525:1093| Int)
(declare-const |__tmp_383_0':146:170:177:230:533:1101| Int)
(declare-const main____CPAchecker_TMP_4 Int)
(declare-const __VERIFIER_assert__cond___0 Int)
(declare-const |__VERIFIER_assert__cond___18':151:171:178:231:534:1102| Int)
(declare-const |havoc:35:66:816:1015:1115| Int)
(declare-const __VERIFIER_assert__cond___12 Int)
(declare-const |__VERIFIER_assert__cond___7':367:383:1006:1106| Int)
(declare-const __VERIFIER_assert__cond Int)
(declare-const |havoc:3:62:1083| Int)
(declare-const main____CPAchecker_TMP_3 Int)
(declare-const |main____CPAchecker_TMP_0___0':149:172:179:232:535:1103| Int)
(declare-const main____CPAchecker_TMP_6 Int)
(declare-const |__VERIFIER_assert__cond___4':366:387:1010:1110| Int)
(declare-const |main__t':147:167:174:227:530:1098| Int)
(declare-const __tmp_383_0 Int)
(declare-const |phi_main____CPAchecker_TMP_0___0:397:524:1092| Int)
(declare-const |K:381:382:1005:1105| Int)
(declare-const |phi___VERIFIER_assert__cond___16:395:526:1094| Int)
(declare-const |main____CPAchecker_TMP_6':369:386:1009:1109| Int)
(declare-const main____CPAchecker_TMP_0___0 Int)
(declare-const |phi___VERIFIER_assert__cond___11:399:522:1090| Int)
(declare-const __VERIFIER_assert__cond___17 Int)
(declare-const |__VERIFIER_assert__cond___17':150:168:175:228:531:1099| Int)
(declare-const __VERIFIER_assert__cond___16 Int)
(declare-const |phi_main__t:403:518:1086| Int)
(assert (and (<= (+ (- havoc) 1) 0) (not (= (+ (- havoc) 1) 0))
               (or (and (not (= |havoc:3:62:1083| 0))
                          (not (= (ite (<= (+ (- havoc) 1) 0) 1 0) 0))
                          (= (+ (- |phi___tmp_383_0:405:516:1084|)
                                  __tmp_383_0) 0)
                          (= (+ (- |phi___tmp_259_0:404:517:1085|)
                                  |havoc:3:62:1083|) 0)
                          (= (- |phi_main__t:403:518:1086|) 0)
                          (= (+ (- |phi_main____CPAchecker_TMP_0:402:519:1087|)
                                  |havoc:3:62:1083|) 0)
                          (= (+ (- |phi___VERIFIER_assert__cond:401:520:1088|)
                                  1) 0)
                          (= (+ (- |phi___VERIFIER_assert__cond___0:400:521:1089|)
                                  (ite (<= (+ (- havoc) 1) 0) 1 0)) 0)
                          (= (+ (- |phi___VERIFIER_assert__cond___11:399:522:1090|)
                                  __VERIFIER_assert__cond___11) 0)
                          (= (+ (- |phi___VERIFIER_assert__cond___12:398:523:1091|)
                                  __VERIFIER_assert__cond___12) 0)
                          (= (+ (- |phi_main____CPAchecker_TMP_0___0:397:524:1092|)
                                  main____CPAchecker_TMP_0___0) 0)
                          (= (+ (- |phi___VERIFIER_assert__cond___15:396:525:1093|)
                                  __VERIFIER_assert__cond___15) 0)
                          (= (+ (- |phi___VERIFIER_assert__cond___16:395:526:1094|)
                                  __VERIFIER_assert__cond___16) 0)
                          (= (+ (- |phi___VERIFIER_assert__cond___17:394:527:1095|)
                                  __VERIFIER_assert__cond___17) 0)
                          (= (+ (- |phi___VERIFIER_assert__cond___18:393:528:1096|)
                                  __VERIFIER_assert__cond___18) 0))
                     (and (= |havoc:3:62:1083| 0)
                            (not (= (ite (<= (+ (- havoc) 1) 0) 1 0) 0))
                            (or (not (<= (- |K:165:166:173:226:529:1097|) 0))
                                  (= (+ |main__t':147:167:174:227:530:1098|
                                          (- |K:165:166:173:226:529:1097|)) 0))
                            (or (not (and (<= (- |K:165:166:173:226:529:1097|) 0)
                                            (<= |K:165:166:173:226:529:1097| 0)))
                                  (= (+ |__VERIFIER_assert__cond___17':150:168:175:228:531:1099|
                                          (- __VERIFIER_assert__cond___17)) 0))
                            (or (not (<= (+ (- |K:165:166:173:226:529:1097|)
                                              1) 0))
                                  (= (+ |__VERIFIER_assert__cond___17':150:168:175:228:531:1099|
                                          -1) 0))
                            (or (not (and (<= (- |K:165:166:173:226:529:1097|) 0)
                                            (<= |K:165:166:173:226:529:1097| 0)))
                                  (= (+ |main____CPAchecker_TMP_0':148:169:176:229:532:1100|
                                          (- |havoc:3:62:1083|)) 0))
                            (or (not (<= (+ (- |K:165:166:173:226:529:1097|)
                                              1) 0))
                                  (= |main____CPAchecker_TMP_0':148:169:176:229:532:1100| 0))
                            (or (not (and (<= (- |K:165:166:173:226:529:1097|) 0)
                                            (<= |K:165:166:173:226:529:1097| 0)))
                                  (= (+ |__tmp_383_0':146:170:177:230:533:1101|
                                          (- |havoc:3:62:1083|)) 0))
                            (or (not (<= (+ (- |K:165:166:173:226:529:1097|)
                                              1) 0))
                                  (= |__tmp_383_0':146:170:177:230:533:1101| 0))
                            (or (not (and (<= (- |K:165:166:173:226:529:1097|) 0)
                                            (<= |K:165:166:173:226:529:1097| 0)))
                                  (= (+ |__VERIFIER_assert__cond___18':151:171:178:231:534:1102|
                                          (- __VERIFIER_assert__cond___18)) 0))
                            (or (not (<= (+ (- |K:165:166:173:226:529:1097|)
                                              1) 0))
                                  (= (+ |__VERIFIER_assert__cond___18':151:171:178:231:534:1102|
                                          -1) 0))
                            (or (not (and (<= (- |K:165:166:173:226:529:1097|) 0)
                                            (<= |K:165:166:173:226:529:1097| 0)))
                                  (= (+ |main____CPAchecker_TMP_0___0':149:172:179:232:535:1103|
                                          (- main____CPAchecker_TMP_0___0)) 0))
                            (or (not (<= (+ (- |K:165:166:173:226:529:1097|)
                                              1) 0))
                                  (= |main____CPAchecker_TMP_0___0':149:172:179:232:535:1103| 0))
                            (or (and (= |K:165:166:173:226:529:1097| 0)
                                       (= (+ (- |__VERIFIER_assert__cond___18':151:171:178:231:534:1102|)
                                               __VERIFIER_assert__cond___18) 0)
                                       (= (+ (- |__VERIFIER_assert__cond___17':150:168:175:228:531:1099|)
                                               __VERIFIER_assert__cond___17) 0)
                                       (= (+ (- |main____CPAchecker_TMP_0___0':149:172:179:232:535:1103|)
                                               main____CPAchecker_TMP_0___0) 0)
                                       (= (+ (- |main____CPAchecker_TMP_0':148:169:176:229:532:1100|)
                                               |havoc:3:62:1083|) 0)
                                       (= (- |main__t':147:167:174:227:530:1098|) 0)
                                       (= (+ (- |__tmp_383_0':146:170:177:230:533:1101|)
                                               |havoc:3:62:1083|) 0))
                                  (and (<= (+ (- |K:165:166:173:226:529:1097|)
                                                1) 0) (= |havoc:3:62:1083| 0)
                                         (= |havoc:3:62:1083| 0)
                                         (<= (+ (- havoc) 3) 0)
                                         (= (+ |__VERIFIER_assert__cond___18':151:171:178:231:534:1102|
                                                 -1) 0)
                                         (= (+ |__VERIFIER_assert__cond___17':150:168:175:228:531:1099|
                                                 -1) 0)
                                         (= |main____CPAchecker_TMP_0':148:169:176:229:532:1100| 0)
                                         (= |main____CPAchecker_TMP_0___0':149:172:179:232:535:1103| 0)
                                         (= |__tmp_383_0':146:170:177:230:533:1101| 0)
                                         (<= (+ |main__t':147:167:174:227:530:1098|
                                                  (- havoc) 2) 0)
                                         (<= (+ (- |main__t':147:167:174:227:530:1098|)
                                                  1) 0)))
                            (<= (- |K:165:166:173:226:529:1097|) 0)
                            (= |__tmp_383_0':146:170:177:230:533:1101| 0)
                            (= |main____CPAchecker_TMP_0':148:169:176:229:532:1100| 0)
                            (<= (- |main__t':147:167:174:227:530:1098|) 0)
                            (< (+ (- havoc) 1) 0)
                            (= |__tmp_383_0':146:170:177:230:533:1101| 0)
                            (= |main____CPAchecker_TMP_0':148:169:176:229:532:1100| 0)
                            (not (= (+ |main__t':147:167:174:227:530:1098|
                                         (- havoc) 2) 0))
                            (not (= |havoc:9:63:145:225:233:536:1104| 0))
                            (not (= (ite (<= (+ (- |main__t':147:167:174:227:530:1098|)
                                                  -1) 0)
                                         1 0) 0))
                            (not (= (ite (<= (+ |main__t':147:167:174:227:530:1098|
                                                  (- havoc) 2) 0)
                                         1 0) 0))
                            (= (+ |__tmp_383_0':146:170:177:230:533:1101|
                                    (- |phi___tmp_383_0:405:516:1084|)) 0)
                            (= (+ |havoc:9:63:145:225:233:536:1104|
                                    (- |phi___tmp_259_0:404:517:1085|)) 0)
                            (= (+ |main__t':147:167:174:227:530:1098|
                                    (- |phi_main__t:403:518:1086|) 1) 0)
                            (= (+ |__tmp_383_0':146:170:177:230:533:1101|
                                    (- |phi_main____CPAchecker_TMP_0:402:519:1087|)) 0)
                            (= (+ __VERIFIER_assert__cond
                                    (- |phi___VERIFIER_assert__cond:401:520:1088|)) 0)
                            (= (+ __VERIFIER_assert__cond___0
                                    (- |phi___VERIFIER_assert__cond___0:400:521:1089|)) 0)
                            (= (+ (- |phi___VERIFIER_assert__cond___11:399:522:1090|)
                                    1) 0)
                            (= (+ (- |phi___VERIFIER_assert__cond___12:398:523:1091|)
                                    (ite (<= (+ (- havoc) 1) 0) 1 0)) 0)
                            (= (+ |havoc:9:63:145:225:233:536:1104|
                                    (- |phi_main____CPAchecker_TMP_0___0:397:524:1092|)) 0)
                            (= (+ (ite (<= (+ (- |main__t':147:167:174:227:530:1098|)
                                                -1) 0)
                                       1 0)
                                    (- |phi___VERIFIER_assert__cond___15:396:525:1093|)) 0)
                            (= (+ (ite (<= (+ |main__t':147:167:174:227:530:1098|
                                                (- havoc) 2) 0)
                                       1 0)
                                    (- |phi___VERIFIER_assert__cond___16:395:526:1094|)) 0)
                            (= (+ |__VERIFIER_assert__cond___17':150:168:175:228:531:1099|
                                    (- |phi___VERIFIER_assert__cond___17:394:527:1095|)) 0)
                            (= (+ |__VERIFIER_assert__cond___18':151:171:178:231:534:1102|
                                    (- |phi___VERIFIER_assert__cond___18:393:528:1096|)) 0)))
               (or (not (and (<= (- |K:381:382:1005:1105|) 0)
                               (<= |K:381:382:1005:1105| 0)))
                     (= (+ (- __VERIFIER_assert__cond___7)
                             |__VERIFIER_assert__cond___7':367:383:1006:1106|) 0))
               (or (not (<= (+ (- |K:381:382:1005:1105|) 1) 0))
                     (= (+ |__VERIFIER_assert__cond___7':367:383:1006:1106|
                             -1) 0))
               (or (not (and (<= (- |K:381:382:1005:1105|) 0)
                               (<= |K:381:382:1005:1105| 0)))
                     (= (+ (- __VERIFIER_assert__cond___8)
                             |__VERIFIER_assert__cond___8':368:384:1007:1107|) 0))
               (or (not (<= (+ (- |K:381:382:1005:1105|) 1) 0))
                     (= (+ |__VERIFIER_assert__cond___8':368:384:1007:1107|
                             -1) 0))
               (or (not (<= (- |K:381:382:1005:1105|) 0))
                     (<= (+ |main__t':147:385:1008:1108|
                              (* -2 |K:381:382:1005:1105|)
                              (- |phi_main__t:403:518:1086|) -1) 0))
               (or (not (<= (- |K:381:382:1005:1105|) 0))
                     (<= (+ |main__t':147:385:1008:1108|
                              (* 2 |K:381:382:1005:1105|)
                              (- |phi_main__t:403:518:1086|)
                              (- (* |K:381:382:1005:1105| havoc)) -1) 0))
               (or (not (<= (- |K:381:382:1005:1105|) 0))
                     (<= (+ (- |main__t':147:385:1008:1108|)
                              |K:381:382:1005:1105|
                              |phi_main__t:403:518:1086| 1) 0))
               (or (and (= |K:381:382:1005:1105| 0)
                          (= (+ (- |main____CPAchecker_TMP_6':369:386:1009:1109|)
                                  main____CPAchecker_TMP_6) 0)
                          (= (+ __VERIFIER_assert__cond___8
                                  (- |__VERIFIER_assert__cond___8':368:384:1007:1107|)) 0)
                          (= (+ __VERIFIER_assert__cond___7
                                  (- |__VERIFIER_assert__cond___7':367:383:1006:1106|)) 0)
                          (= (+ (- |__VERIFIER_assert__cond___4':366:387:1010:1110|)
                                  __VERIFIER_assert__cond___4) 0)
                          (= (+ (- |__VERIFIER_assert__cond___3':365:388:1011:1111|)
                                  __VERIFIER_assert__cond___3) 0)
                          (= (+ (- |main____CPAchecker_TMP_4':364:389:1012:1112|)
                                  main____CPAchecker_TMP_4) 0)
                          (= (+ (- |main____CPAchecker_TMP_3':363:390:1013:1113|)
                                  main____CPAchecker_TMP_3) 0)
                          (= (+ (- |main__t':147:385:1008:1108|)
                                  |phi_main__t:403:518:1086| 1) 0))
                     (and (<= (+ (- |K:381:382:1005:1105|) 1) 0)
                            (<= (+ |phi_main__t:403:518:1086| (- havoc) 3) 0)
                            (<= (- |phi_main__t:403:518:1086|) 0)
                            (= (+ |__VERIFIER_assert__cond___8':368:384:1007:1107|
                                    -1) 0)
                            (= (+ |__VERIFIER_assert__cond___7':367:383:1006:1106|
                                    -1) 0)
                            (<= (+ |main__t':147:385:1008:1108| (- havoc) 1) 0)
                            (<= (+ (- |main__t':147:385:1008:1108|) 2) 0)))
               (<= (- |K:381:382:1005:1105|) 0)
               (< (- |main__t':147:385:1008:1108|) 0) (< (+ (- havoc) 1) 0)
               (not (= (+ |main__t':147:385:1008:1108| (- havoc) 1) 0))
               (not (= |havoc:28:64:341:391:1014:1114| 0))
               (not (= |havoc:35:66:816:1015:1115| 0))
               (= (ite (<= (- |main__t':147:385:1008:1108|) 0) 1 0) 0)))
(check-sat)
